26 27
22
3 3 16 24
3 4 3 0
3 5 16 19
3 6 7 4
3 7 13 20
3 8 17 10
3 9 19 18
3 10 17 0
3 11 0 0
3 12 10 15
3 14 23 1
3 15 20 1
3 16 4 11
3 17 7 10
3 19 14 0
4 3 0 24
4 4 6 0
4 5 0 11
4 7 3 4
4 8 0 16
4 11 22 16
4 14 10 1
